# Solution for model SEP
# Objective value = 0
y1_2 0
y1_3 0
y1_4 1
y1_5 0
y1_6 0
y1_7 0
y1_8 0
y1_9 0
y1_10 0
y1_11 0
y1_12 0
y1_13 0
y1_14 1
y1_15 0
y1_16 0
y1_17 0
y1_18 0
y1_19 0
y1_20 0
y1_21 0
y1_22 0
y1_23 0
y1_24 0
y1_25 0
y1_26 0
y1_27 0
y1_28 0
y1_29 0
y2_3 0
y2_4 0
y2_5 0
y2_6 0
y2_7 0
y2_8 0
y2_9 1
y2_10 0
y2_11 0
y2_12 0
y2_13 0
y2_14 0
y2_15 0
y2_16 0
y2_17 0
y2_18 0
y2_19 0
y2_20 0
y2_21 0
y2_22 0
y2_23 0
y2_24 0
y2_25 0
y2_26 0
y2_27 0
y2_28 0
y2_29 0
y3_4 0
y3_5 0
y3_6 0
y3_7 0
y3_8 0
y3_9 0
y3_10 0
y3_11 0
y3_12 0
y3_13 0
y3_14 0
y3_15 0
y3_16 0
y3_17 0
y3_18 0
y3_19 0
y3_20 0
y3_21 0
y3_22 0
y3_23 0
y3_24 0
y3_25 0
y3_26 0
y3_27 0
y3_28 0
y3_29 0
y4_5 0
y4_6 0
y4_7 0
y4_8 0
y4_9 0
y4_10 0
y4_11 0
y4_12 0
y4_13 0
y4_14 0
y4_15 1
y4_16 0
y4_17 0
y4_18 0
y4_19 0
y4_20 0
y4_21 0
y4_22 0
y4_23 0
y4_24 0
y4_25 0
y4_26 0
y4_27 0
y4_28 0
y4_29 0
y5_6 0
y5_7 0
y5_8 0
y5_9 0
y5_10 0
y5_11 0
y5_12 0
y5_13 0
y5_14 0
y5_15 0
y5_16 0
y5_17 0
y5_18 0
y5_19 0
y5_20 0
y5_21 0
y5_22 0
y5_23 0
y5_24 0
y5_25 0
y5_26 0
y5_27 0
y5_28 0
y5_29 0
y6_7 0
y6_8 0
y6_9 0
y6_10 0
y6_11 0
y6_12 0
y6_13 0
y6_14 0
y6_15 0
y6_16 0
y6_17 0
y6_18 0
y6_19 0
y6_20 0
y6_21 0
y6_22 0
y6_23 0
y6_24 0
y6_25 0
y6_26 0
y6_27 0
y6_28 0
y6_29 0
y7_8 0
y7_9 0
y7_10 0
y7_11 0
y7_12 0
y7_13 0
y7_14 0
y7_15 0
y7_16 0
y7_17 0
y7_18 0
y7_19 0
y7_20 0
y7_21 0
y7_22 0
y7_23 0
y7_24 0
y7_25 0
y7_26 0
y7_27 0
y7_28 0
y7_29 0
y8_9 0
y8_10 1
y8_11 0
y8_12 0
y8_13 0
y8_14 0
y8_15 0
y8_16 0
y8_17 0
y8_18 0
y8_19 0
y8_20 1
y8_21 0
y8_22 0
y8_23 0
y8_24 0
y8_25 0
y8_26 0
y8_27 0
y8_28 0
y8_29 0
y9_10 0
y9_11 0
y9_12 0
y9_13 0
y9_14 0
y9_15 0
y9_16 0
y9_17 0
y9_18 0
y9_19 0
y9_20 0
y9_21 0
y9_22 1
y9_23 0
y9_24 0
y9_25 0
y9_26 0
y9_27 0
y9_28 0
y9_29 0
y10_11 0
y10_12 0
y10_13 0
y10_14 0
y10_15 0
y10_16 0
y10_17 0
y10_18 0
y10_19 0
y10_20 0
y10_21 0
y10_22 0
y10_23 0
y10_24 0
y10_25 0
y10_26 0
y10_27 0
y10_28 0
y10_29 0
y11_12 0
y11_13 0
y11_14 0
y11_15 0
y11_16 0
y11_17 0
y11_18 0
y11_19 0
y11_20 0
y11_21 0
y11_22 0
y11_23 0
y11_24 0
y11_25 0
y11_26 0
y11_27 0
y11_28 0
y11_29 0
y12_13 0
y12_14 0
y12_15 0
y12_16 0
y12_17 0
y12_18 0
y12_19 0
y12_20 0
y12_21 0
y12_22 0
y12_23 0
y12_24 0
y12_25 0
y12_26 0
y12_27 0
y12_28 0
y12_29 0
y13_14 1
y13_15 0
y13_16 0
y13_17 0
y13_18 0
y13_19 0
y13_20 0
y13_21 0
y13_22 0
y13_23 0
y13_24 0
y13_25 0
y13_26 1
y13_27 0
y13_28 0
y13_29 0
y14_15 0
y14_16 0
y14_17 0
y14_18 0
y14_19 0
y14_20 0
y14_21 0
y14_22 0
y14_23 0
y14_24 0
y14_25 0
y14_26 0
y14_27 0
y14_28 0
y14_29 0
y15_16 0
y15_17 0
y15_18 0
y15_19 0
y15_20 0
y15_21 0
y15_22 0
y15_23 0
y15_24 0
y15_25 0
y15_26 0
y15_27 0
y15_28 0
y15_29 1
y16_17 0
y16_18 0
y16_19 0
y16_20 0
y16_21 0
y16_22 0
y16_23 0
y16_24 0
y16_25 0
y16_26 0
y16_27 0
y16_28 0
y16_29 0
y17_18 0
y17_19 0
y17_20 0
y17_21 0
y17_22 0
y17_23 0
y17_24 0
y17_25 0
y17_26 0
y17_27 0
y17_28 0
y17_29 0
y18_19 0
y18_20 0
y18_21 0
y18_22 0
y18_23 0
y18_24 0
y18_25 0
y18_26 0
y18_27 0
y18_28 0
y18_29 0
y19_20 0
y19_21 0
y19_22 0
y19_23 0
y19_24 0
y19_25 0
y19_26 0
y19_27 0
y19_28 0
y19_29 0
y20_21 0
y20_22 0
y20_23 0
y20_24 0
y20_25 0
y20_26 0
y20_27 0
y20_28 0
y20_29 1
y21_22 0
y21_23 0
y21_24 0
y21_25 0
y21_26 0
y21_27 0
y21_28 0
y21_29 0
y22_23 0
y22_24 0
y22_25 1
y22_26 0
y22_27 0
y22_28 0
y22_29 0
y23_24 0
y23_25 0
y23_26 0
y23_27 0
y23_28 0
y23_29 0
y24_25 0
y24_26 0
y24_27 0
y24_28 0
y24_29 0
y25_26 0
y25_27 1
y25_28 0
y25_29 0
y26_27 1
y26_28 0
y26_29 0
y27_28 0
y27_29 0
y28_29 0
z1 1
z2 1
z3 0
z4 1
z5 0
z6 0
z7 0
z8 1
z9 1
z10 1
z11 0
z12 0
z13 1
z14 1
z15 1
z16 0
z17 0
z18 0
z19 0
z20 1
z21 0
z22 1
z23 0
z24 0
z25 1
z26 1
z27 1
z28 0
z29 1
